4 10 6 15 18 17 8 14 11 12 0 16 5 9 13 2 7 1 3 19  
4 10 6 18 15 17 8 14 11 12 0 1 5 9 19 2 7 3 13 16  
4 10 6 18 15 17 8 14 11 12 0 16 5 9 19 2 7 3 1 13  
4 10 18 15 6 17 8 14 11 16 0 1 5 9 19 2 7 3 13 12  
4 10 6 18 15 17 8 14 11 12 0 16 5 9 13 2 7 3 1 19  
4 10 6 18 15 17 8 14 11 12 0 16 5 9 19 7 3 13 2 1  
4 10 6 18 15 17 8 14 11 12 5 9 19 7 2 1 0 13 16 3  
4 10 6 18 15 17 8 14 11 12 0 16 5 9 19 2 7 3 1 13  
4 10 18 15 14 6 11 7 17 12 5 9 19 2 1 0 13 16 3 8  
4 10 6 18 15 17 8 14 11 12 0 1 5 9 19 7 2 13 16 3  
4 10 18 15 11 17 8 14 16 6 0 1 5 9 19 2 7 3 13 12  
4 10 6 18 15 17 8 14 11 12 0 1 5 9 19 7 2 13 16 3  
4 10 6 18 15 17 8 14 11 12 5 9 19 2 1 0 13 16 7 3  
4 10 6 15 8 17 18 14 11 12 0 16 5 9 13 2 7 1 3 19  
4 10 6 18 15 0 8 14 11 12 17 16 5 9 13 2 7 1 3 19  
4 10 6 18 15 17 8 11 12 5 9 19 7 2 1 0 13 16 3 14  
4 10 18 15 14 6 11 7 9 12 5 17 19 2 1 0 13 16 3 8  
4 10 6 18 15 17 8 14 11 12 5 9 19 7 3 1 0 13 16 2  
4 10 18 15 6 17 11 14 12 5 2 9 19 7 1 0 13 16 3 8  
4 10 6 15 18 17 11 14 12 5 7 9 19 2 1 0 13 16 3 8  
4 10 6 18 15 17 8 14 11 12 0 16 5 9 19 2 13 7 3 1  
4 10 18 15 17 8 11 14 16 6 0 1 5 9 19 7 2 3 13 12  
4 10 6 18 15 17 8 14 11 12 0 16 5 9 19 2 7 3 1 13  
4 10 6 18 15 17 8 14 11 12 5 7 9 13 2 1 0 19 16 3  
4 10 6 18 15 17 8 11 12 5 9 19 7 2 0 1 13 16 3 14  
4 10 6 15 8 17 18 14 11 12 0 1 5 9 13 2 7 3 19 16  
4 10 6 18 15 17 8 14 11 12 0 1 5 9 13 7 2 3 19 16  
4 10 6 18 15 17 8 14 11 12 0 16 5 9 13 2 7 3 1 19  
4 10 6 18 15 17 8 14 11 12 0 1 5 9 19 2 7 3 13 16  
4 10 6 18 15 17 8 11 12 5 9 19 7 1 0 2 13 16 3 14  
4 10 6 18 15 17 8 11 12 5 9 19 7 2 1 0 13 16 3 14  
4 10 18 15 7 14 6 11 17 12 5 9 19 2 1 0 13 16 3 8  
4 10 18 15 17 8 11 14 16 6 0 1 5 9 13 7 2 3 19 12  
